/* Cplex Data generated on 2017-12-16 */

k = 67;

b = 31;

AtomicConstraints = {
	 <1, 66>,
	 <1, 67>,
	 <2, 66>,
	 <2, 67>,
	 <3, 66>,
	 <3, 67>,
	 <7, 58>,
	 <7, 66>,
	 <7, 55>,
	 <7, 67>,
	 <8, 58>,
	 <8, 66>,
	 <8, 55>,
	 <8, 67>,
	 <9, 58>,
	 <9, 66>,
	 <9, 55>,
	 <9, 67>,
	 <10, 1>,
	 <10, 2>,
	 <10, 3>,
	 <10, 4>,
	 <10, 5>,
	 <10, 6>,
	 <10, 11>,
	 <10, 13>,
	 <10, 18>,
	 <10, 19>,
	 <10, 20>,
	 <10, 21>,
	 <10, 22>,
	 <10, 24>,
	 <10, 27>,
	 <10, 28>,
	 <10, 29>,
	 <10, 58>,
	 <10, 66>,
	 <10, 67>,
	 <11, 1>,
	 <11, 2>,
	 <11, 3>,
	 <11, 4>,
	 <11, 5>,
	 <11, 6>,
	 <11, 18>,
	 <11, 19>,
	 <11, 20>,
	 <11, 21>,
	 <11, 22>,
	 <11, 24>,
	 <11, 27>,
	 <11, 28>,
	 <11, 66>,
	 <11, 67>,
	 <12, 1>,
	 <12, 2>,
	 <12, 3>,
	 <12, 4>,
	 <12, 5>,
	 <12, 6>,
	 <12, 11>,
	 <12, 13>,
	 <12, 14>,
	 <12, 18>,
	 <12, 19>,
	 <12, 20>,
	 <12, 21>,
	 <12, 22>,
	 <12, 23>,
	 <12, 24>,
	 <12, 27>,
	 <12, 28>,
	 <12, 66>,
	 <12, 67>,
	 <13, 1>,
	 <13, 2>,
	 <13, 3>,
	 <13, 4>,
	 <13, 5>,
	 <13, 6>,
	 <13, 18>,
	 <13, 19>,
	 <13, 20>,
	 <13, 21>,
	 <13, 22>,
	 <13, 23>,
	 <13, 24>,
	 <13, 27>,
	 <13, 66>,
	 <13, 67>,
	 <63, 1>,
	 <63, 2>,
	 <63, 3>,
	 <63, 4>,
	 <63, 5>,
	 <63, 6>,
	 <63, 11>,
	 <63, 13>,
	 <63, 14>,
	 <63, 18>,
	 <63, 19>,
	 <63, 20>,
	 <63, 21>,
	 <63, 22>,
	 <63, 23>,
	 <63, 24>,
	 <63, 27>,
	 <63, 28>,
	 <63, 66>,
	 <63, 67>,
	 <14, 1>,
	 <14, 2>,
	 <14, 3>,
	 <14, 4>,
	 <14, 5>,
	 <14, 6>,
	 <14, 18>,
	 <14, 19>,
	 <14, 20>,
	 <14, 21>,
	 <14, 22>,
	 <14, 23>,
	 <14, 24>,
	 <14, 27>,
	 <14, 66>,
	 <14, 67>,
	 <64, 1>,
	 <64, 2>,
	 <64, 3>,
	 <64, 24>,
	 <64, 35>,
	 <64, 40>,
	 <64, 37>,
	 <64, 54>,
	 <64, 51>,
	 <64, 27>,
	 <64, 28>,
	 <64, 29>,
	 <64, 38>,
	 <64, 39>,
	 <64, 36>,
	 <64, 50>,
	 <64, 49>,
	 <64, 58>,
	 <64, 66>,
	 <64, 67>,
	 <15, 1>,
	 <15, 2>,
	 <15, 3>,
	 <15, 24>,
	 <15, 35>,
	 <15, 40>,
	 <15, 37>,
	 <15, 54>,
	 <15, 27>,
	 <15, 28>,
	 <15, 29>,
	 <15, 38>,
	 <15, 39>,
	 <15, 36>,
	 <15, 50>,
	 <15, 58>,
	 <15, 66>,
	 <15, 67>,
	 <16, 1>,
	 <16, 2>,
	 <16, 3>,
	 <16, 24>,
	 <16, 35>,
	 <16, 40>,
	 <16, 37>,
	 <16, 54>,
	 <16, 27>,
	 <16, 28>,
	 <16, 29>,
	 <16, 38>,
	 <16, 39>,
	 <16, 36>,
	 <16, 58>,
	 <16, 66>,
	 <16, 67>,
	 <17, 1>,
	 <17, 2>,
	 <17, 3>,
	 <17, 4>,
	 <17, 24>,
	 <17, 35>,
	 <17, 40>,
	 <17, 37>,
	 <17, 27>,
	 <17, 28>,
	 <17, 29>,
	 <17, 38>,
	 <17, 39>,
	 <17, 36>,
	 <17, 58>,
	 <17, 66>,
	 <17, 67>,
	 <18, 4>,
	 <18, 5>,
	 <18, 6>,
	 <18, 66>,
	 <19, 4>,
	 <19, 5>,
	 <19, 6>,
	 <19, 66>,
	 <20, 4>,
	 <20, 5>,
	 <20, 6>,
	 <20, 66>,
	 <21, 4>,
	 <21, 5>,
	 <21, 6>,
	 <21, 66>,
	 <22, 4>,
	 <22, 5>,
	 <22, 6>,
	 <22, 66>,
	 <23, 4>,
	 <23, 5>,
	 <23, 6>,
	 <23, 66>,
	 <24, 66>,
	 <35, 24>,
	 <35, 27>,
	 <35, 28>,
	 <35, 29>,
	 <35, 58>,
	 <35, 66>,
	 <35, 67>,
	 <40, 24>,
	 <40, 35>,
	 <40, 27>,
	 <40, 28>,
	 <40, 29>,
	 <40, 38>,
	 <40, 58>,
	 <40, 66>,
	 <40, 67>,
	 <37, 24>,
	 <37, 35>,
	 <37, 40>,
	 <37, 27>,
	 <37, 28>,
	 <37, 29>,
	 <37, 38>,
	 <37, 39>,
	 <37, 58>,
	 <37, 66>,
	 <37, 67>,
	 <54, 24>,
	 <54, 35>,
	 <54, 40>,
	 <54, 37>,
	 <54, 27>,
	 <54, 28>,
	 <54, 29>,
	 <54, 38>,
	 <54, 39>,
	 <54, 36>,
	 <54, 58>,
	 <54, 66>,
	 <54, 67>,
	 <51, 24>,
	 <51, 35>,
	 <51, 40>,
	 <51, 37>,
	 <51, 54>,
	 <51, 27>,
	 <51, 28>,
	 <51, 29>,
	 <51, 38>,
	 <51, 39>,
	 <51, 36>,
	 <51, 50>,
	 <51, 58>,
	 <51, 66>,
	 <51, 67>,
	 <53, 24>,
	 <53, 35>,
	 <53, 40>,
	 <53, 37>,
	 <53, 54>,
	 <53, 51>,
	 <53, 27>,
	 <53, 28>,
	 <53, 29>,
	 <53, 38>,
	 <53, 39>,
	 <53, 36>,
	 <53, 50>,
	 <53, 49>,
	 <53, 58>,
	 <53, 66>,
	 <53, 67>,
	 <32, 24>,
	 <32, 35>,
	 <32, 40>,
	 <32, 37>,
	 <32, 54>,
	 <32, 51>,
	 <32, 53>,
	 <32, 27>,
	 <32, 28>,
	 <32, 29>,
	 <32, 38>,
	 <32, 39>,
	 <32, 36>,
	 <32, 50>,
	 <32, 49>,
	 <32, 52>,
	 <32, 58>,
	 <32, 66>,
	 <32, 67>,
	 <33, 24>,
	 <33, 35>,
	 <33, 40>,
	 <33, 37>,
	 <33, 54>,
	 <33, 51>,
	 <33, 53>,
	 <33, 32>,
	 <33, 27>,
	 <33, 28>,
	 <33, 29>,
	 <33, 38>,
	 <33, 39>,
	 <33, 36>,
	 <33, 50>,
	 <33, 49>,
	 <33, 52>,
	 <33, 58>,
	 <33, 66>,
	 <33, 55>,
	 <33, 67>,
	 <34, 24>,
	 <34, 35>,
	 <34, 40>,
	 <34, 37>,
	 <34, 54>,
	 <34, 51>,
	 <34, 53>,
	 <34, 32>,
	 <34, 33>,
	 <34, 27>,
	 <34, 28>,
	 <34, 29>,
	 <34, 38>,
	 <34, 39>,
	 <34, 36>,
	 <34, 50>,
	 <34, 49>,
	 <34, 52>,
	 <34, 58>,
	 <34, 66>,
	 <34, 55>,
	 <34, 67>,
	 <25, 24>,
	 <25, 35>,
	 <25, 40>,
	 <25, 37>,
	 <25, 54>,
	 <25, 51>,
	 <25, 53>,
	 <25, 32>,
	 <25, 33>,
	 <25, 34>,
	 <25, 27>,
	 <25, 28>,
	 <25, 29>,
	 <25, 38>,
	 <25, 39>,
	 <25, 36>,
	 <25, 50>,
	 <25, 49>,
	 <25, 52>,
	 <25, 30>,
	 <25, 58>,
	 <25, 66>,
	 <25, 55>,
	 <25, 67>,
	 <26, 24>,
	 <26, 35>,
	 <26, 40>,
	 <26, 37>,
	 <26, 54>,
	 <26, 51>,
	 <26, 53>,
	 <26, 32>,
	 <26, 33>,
	 <26, 34>,
	 <26, 25>,
	 <26, 27>,
	 <26, 28>,
	 <26, 29>,
	 <26, 38>,
	 <26, 39>,
	 <26, 36>,
	 <26, 50>,
	 <26, 49>,
	 <26, 52>,
	 <26, 30>,
	 <26, 58>,
	 <26, 66>,
	 <26, 55>,
	 <26, 67>,
	 <47, 24>,
	 <47, 35>,
	 <47, 40>,
	 <47, 37>,
	 <47, 54>,
	 <47, 51>,
	 <47, 53>,
	 <47, 32>,
	 <47, 33>,
	 <47, 34>,
	 <47, 25>,
	 <47, 26>,
	 <47, 27>,
	 <47, 28>,
	 <47, 29>,
	 <47, 38>,
	 <47, 39>,
	 <47, 36>,
	 <47, 50>,
	 <47, 49>,
	 <47, 52>,
	 <47, 30>,
	 <47, 31>,
	 <47, 58>,
	 <47, 66>,
	 <47, 55>,
	 <47, 67>,
	 <42, 24>,
	 <42, 35>,
	 <42, 40>,
	 <42, 37>,
	 <42, 54>,
	 <42, 51>,
	 <42, 53>,
	 <42, 32>,
	 <42, 33>,
	 <42, 34>,
	 <42, 25>,
	 <42, 26>,
	 <42, 47>,
	 <42, 27>,
	 <42, 28>,
	 <42, 29>,
	 <42, 38>,
	 <42, 39>,
	 <42, 36>,
	 <42, 50>,
	 <42, 49>,
	 <42, 52>,
	 <42, 30>,
	 <42, 31>,
	 <42, 48>,
	 <42, 58>,
	 <42, 66>,
	 <42, 55>,
	 <42, 67>,
	 <45, 24>,
	 <45, 35>,
	 <45, 40>,
	 <45, 37>,
	 <45, 54>,
	 <45, 51>,
	 <45, 53>,
	 <45, 32>,
	 <45, 33>,
	 <45, 34>,
	 <45, 25>,
	 <45, 26>,
	 <45, 47>,
	 <45, 42>,
	 <45, 27>,
	 <45, 28>,
	 <45, 29>,
	 <45, 38>,
	 <45, 39>,
	 <45, 36>,
	 <45, 50>,
	 <45, 49>,
	 <45, 52>,
	 <45, 30>,
	 <45, 31>,
	 <45, 48>,
	 <45, 41>,
	 <45, 58>,
	 <45, 66>,
	 <45, 55>,
	 <45, 67>,
	 <43, 24>,
	 <43, 35>,
	 <43, 40>,
	 <43, 37>,
	 <43, 54>,
	 <43, 51>,
	 <43, 53>,
	 <43, 32>,
	 <43, 33>,
	 <43, 34>,
	 <43, 25>,
	 <43, 26>,
	 <43, 47>,
	 <43, 42>,
	 <43, 45>,
	 <43, 27>,
	 <43, 28>,
	 <43, 29>,
	 <43, 38>,
	 <43, 39>,
	 <43, 36>,
	 <43, 50>,
	 <43, 49>,
	 <43, 52>,
	 <43, 30>,
	 <43, 31>,
	 <43, 48>,
	 <43, 41>,
	 <43, 44>,
	 <43, 58>,
	 <43, 66>,
	 <43, 55>,
	 <43, 67>,
	 <27, 66>,
	 <28, 24>,
	 <28, 27>,
	 <28, 66>,
	 <29, 24>,
	 <29, 27>,
	 <29, 28>,
	 <29, 66>,
	 <38, 24>,
	 <38, 27>,
	 <38, 28>,
	 <38, 29>,
	 <38, 58>,
	 <38, 66>,
	 <38, 67>,
	 <39, 24>,
	 <39, 35>,
	 <39, 27>,
	 <39, 28>,
	 <39, 29>,
	 <39, 38>,
	 <39, 58>,
	 <39, 66>,
	 <39, 67>,
	 <36, 24>,
	 <36, 35>,
	 <36, 40>,
	 <36, 27>,
	 <36, 28>,
	 <36, 29>,
	 <36, 38>,
	 <36, 39>,
	 <36, 58>,
	 <36, 66>,
	 <36, 67>,
	 <50, 24>,
	 <50, 35>,
	 <50, 40>,
	 <50, 37>,
	 <50, 27>,
	 <50, 28>,
	 <50, 29>,
	 <50, 38>,
	 <50, 39>,
	 <50, 36>,
	 <50, 58>,
	 <50, 66>,
	 <50, 67>,
	 <49, 24>,
	 <49, 35>,
	 <49, 40>,
	 <49, 37>,
	 <49, 54>,
	 <49, 27>,
	 <49, 28>,
	 <49, 29>,
	 <49, 38>,
	 <49, 39>,
	 <49, 36>,
	 <49, 50>,
	 <49, 58>,
	 <49, 66>,
	 <49, 67>,
	 <52, 24>,
	 <52, 35>,
	 <52, 40>,
	 <52, 37>,
	 <52, 54>,
	 <52, 51>,
	 <52, 27>,
	 <52, 28>,
	 <52, 29>,
	 <52, 38>,
	 <52, 39>,
	 <52, 36>,
	 <52, 50>,
	 <52, 49>,
	 <52, 58>,
	 <52, 66>,
	 <52, 67>,
	 <30, 24>,
	 <30, 35>,
	 <30, 40>,
	 <30, 37>,
	 <30, 54>,
	 <30, 51>,
	 <30, 53>,
	 <30, 32>,
	 <30, 33>,
	 <30, 27>,
	 <30, 28>,
	 <30, 29>,
	 <30, 38>,
	 <30, 39>,
	 <30, 36>,
	 <30, 50>,
	 <30, 49>,
	 <30, 52>,
	 <30, 58>,
	 <30, 66>,
	 <30, 55>,
	 <30, 67>,
	 <31, 24>,
	 <31, 35>,
	 <31, 40>,
	 <31, 37>,
	 <31, 54>,
	 <31, 51>,
	 <31, 53>,
	 <31, 32>,
	 <31, 33>,
	 <31, 34>,
	 <31, 25>,
	 <31, 27>,
	 <31, 28>,
	 <31, 29>,
	 <31, 38>,
	 <31, 39>,
	 <31, 36>,
	 <31, 50>,
	 <31, 49>,
	 <31, 52>,
	 <31, 30>,
	 <31, 58>,
	 <31, 66>,
	 <31, 55>,
	 <31, 67>,
	 <48, 24>,
	 <48, 35>,
	 <48, 40>,
	 <48, 37>,
	 <48, 54>,
	 <48, 51>,
	 <48, 53>,
	 <48, 32>,
	 <48, 33>,
	 <48, 34>,
	 <48, 25>,
	 <48, 26>,
	 <48, 27>,
	 <48, 28>,
	 <48, 29>,
	 <48, 38>,
	 <48, 39>,
	 <48, 36>,
	 <48, 50>,
	 <48, 49>,
	 <48, 52>,
	 <48, 30>,
	 <48, 31>,
	 <48, 58>,
	 <48, 66>,
	 <48, 55>,
	 <48, 67>,
	 <41, 24>,
	 <41, 35>,
	 <41, 40>,
	 <41, 37>,
	 <41, 54>,
	 <41, 51>,
	 <41, 53>,
	 <41, 32>,
	 <41, 33>,
	 <41, 34>,
	 <41, 25>,
	 <41, 26>,
	 <41, 47>,
	 <41, 27>,
	 <41, 28>,
	 <41, 29>,
	 <41, 38>,
	 <41, 39>,
	 <41, 36>,
	 <41, 50>,
	 <41, 49>,
	 <41, 52>,
	 <41, 30>,
	 <41, 31>,
	 <41, 48>,
	 <41, 58>,
	 <41, 66>,
	 <41, 55>,
	 <41, 67>,
	 <44, 24>,
	 <44, 35>,
	 <44, 40>,
	 <44, 37>,
	 <44, 54>,
	 <44, 51>,
	 <44, 53>,
	 <44, 32>,
	 <44, 33>,
	 <44, 34>,
	 <44, 25>,
	 <44, 26>,
	 <44, 47>,
	 <44, 42>,
	 <44, 27>,
	 <44, 28>,
	 <44, 29>,
	 <44, 38>,
	 <44, 39>,
	 <44, 36>,
	 <44, 50>,
	 <44, 49>,
	 <44, 52>,
	 <44, 30>,
	 <44, 31>,
	 <44, 48>,
	 <44, 41>,
	 <44, 58>,
	 <44, 66>,
	 <44, 55>,
	 <44, 67>,
	 <46, 24>,
	 <46, 35>,
	 <46, 40>,
	 <46, 37>,
	 <46, 54>,
	 <46, 51>,
	 <46, 53>,
	 <46, 32>,
	 <46, 33>,
	 <46, 34>,
	 <46, 25>,
	 <46, 26>,
	 <46, 47>,
	 <46, 42>,
	 <46, 45>,
	 <46, 27>,
	 <46, 28>,
	 <46, 29>,
	 <46, 38>,
	 <46, 39>,
	 <46, 36>,
	 <46, 50>,
	 <46, 49>,
	 <46, 52>,
	 <46, 30>,
	 <46, 31>,
	 <46, 48>,
	 <46, 41>,
	 <46, 44>,
	 <46, 58>,
	 <46, 66>,
	 <46, 55>,
	 <46, 67>,
	 <61, 7>,
	 <61, 8>,
	 <61, 58>,
	 <61, 66>,
	 <61, 55>,
	 <61, 67>,
	 <65, 7>,
	 <65, 8>,
	 <65, 9>,
	 <65, 58>,
	 <65, 66>,
	 <65, 55>,
	 <65, 67>,
	 <55, 58>,
	 <55, 66>,
	 <67, 58>,
	 <67, 66>,
	 <60, 59>,
	 <56, 59>,
	 <56, 60>,
	 <62, 59>,
	 <62, 60>,
	 <62, 56>,
	 <57, 59>,
	 <57, 60>,
	 <57, 56>,
	 <57, 62>,
	 }; 

SoftAtomicConstraints = {
	 <2, 1>,
	 <3, 2>,
	 <5, 4>,
	 <6, 5>,
	 <8, 7>,
	 <9, 8>,
	 <12, 10>,
	 <13, 11>,
	 <63, 12>,
	 <14, 13>,
	 <16, 15>,
	 <17, 16>,
	 <19, 18>,
	 <20, 19>,
	 <21, 20>,
	 <22, 21>,
	 <23, 22>,
	 <24, 27>,
	 <34, 30>,
	 <26, 31>,
	 <37, 36>,
	 <35, 38>,
	 <40, 39>,
	 <42, 41>,
	 <45, 44>,
	 <43, 46>,
	 <47, 48>,
	 <51, 49>,
	 <54, 50>,
	 <53, 52>,
	 <67, 55>,
	 <66, 58>,
	 <65, 61>,
	 <15, 64>,
	 <1, 67>,
	 }; 

DisjunctiveConstraints = {
	 <2, 3, 2, 1>,
	 <5, 6, 5, 4>,
	 <8, 9, 8, 7>,
	 <8, 58, 8, 27>,
	 <10, 22, 53, 10>,
	 <11, 22, 53, 11>,
	 <12, 63, 12, 10>,
	 <12, 23, 54, 12>,
	 <13, 14, 13, 11>,
	 <13, 23, 54, 13>,
	 <15, 16, 15, 64>,
	 <16, 17, 16, 15>,
	 <17, 4, 35, 17>,
	 <19, 20, 19, 18>,
	 <20, 21, 20, 19>,
	 <21, 22, 21, 20>,
	 <22, 23, 22, 21>,
	 <45, 55, 45, 24>,
	 <43, 55, 43, 24>,
	 <30, 28, 30, 59>,
	 <31, 28, 31, 59>,
	 <31, 29, 31, 60>,
	 <48, 28, 48, 59>,
	 <48, 29, 48, 60>,
	 <41, 28, 41, 59>,
	 <41, 29, 41, 60>,
	 <41, 58, 41, 27>,
	 <44, 28, 44, 59>,
	 <44, 29, 44, 60>,
	 <44, 58, 44, 27>,
	 <46, 28, 46, 59>,
	 <46, 29, 46, 60>,
	 <46, 58, 46, 27>,
	 <61, 58, 61, 27>,
	 }; 

DirectSuccessors = {
	 }; 

